\Problem name: compact

Minimize
OBJROW: C
Subject To
ord(0,1):  x(0,0) - x(0,2) >= 6
ord(0,2):  - x(0,0) + x(0,1) >= 10
ord(1,1):  - x(1,1) + x(1,2) >= 3
ord(1,2):  x(1,0) - x(1,2) >= 1
ord(2,1):  x(2,0) - x(2,1) >= 9
ord(2,2):  - x(2,0) + x(2,2) >= 4
ord(3,1):  - x(3,0) + x(3,2) >= 4
ord(3,2):  x(3,1) - x(3,2) >= 10
triangle2(0,1,0):  y(0,1,0) + y(1,0,0) = 1
triangle2(0,1,1):  y(0,1,1) + y(1,0,1) = 1
triangle2(0,1,2):  y(0,1,2) + y(1,0,2) = 1
triangle2(0,2,0):  y(0,2,0) + y(2,0,0) = 1
triangle2(0,2,1):  y(0,2,1) + y(2,0,1) = 1
triangle2(0,2,2):  y(0,2,2) + y(2,0,2) = 1
triangle2(0,3,0):  y(0,3,0) + y(3,0,0) = 1
triangle2(0,3,1):  y(0,3,1) + y(3,0,1) = 1
triangle2(0,3,2):  y(0,3,2) + y(3,0,2) = 1
triangle2(1,2,0):  y(1,2,0) + y(2,1,0) = 1
triangle2(1,2,1):  y(1,2,1) + y(2,1,1) = 1
triangle2(1,2,2):  y(1,2,2) + y(2,1,2) = 1
triangle2(1,3,0):  y(1,3,0) + y(3,1,0) = 1
triangle2(1,3,1):  y(1,3,1) + y(3,1,1) = 1
triangle2(1,3,2):  y(1,3,2) + y(3,1,2) = 1
triangle2(2,3,0):  y(2,3,0) + y(3,2,0) = 1
triangle2(2,3,1):  y(2,3,1) + y(3,2,1) = 1
triangle2(2,3,2):  y(2,3,2) + y(3,2,2) = 1
MCLinV(0,1,0):  x(0,0) - v(0,1,0) - x(1,0) = 5
MCLinV(1,0,0):  - x(0,0) - v(1,0,0) + x(1,0) = 10
MCLin1(0,1,0):  u(0,1,0) >= -0
MCLin2(0,1,0):  -68 y(1,0,0) - u(0,1,0) <= -0
MCLin3(0,1,0):  48 y(1,0,0) + v(0,1,0) - u(0,1,0) <= 48
MCLin4(0,1,0):  48 y(1,0,0) - u(0,1,0) >= -0
MCLin5(0,1,0):  -68 y(1,0,0) + v(0,1,0) - u(0,1,0) >= -68
MCLin6(1,0,0):  u(1,0,0) >= -0
MCLin7(1,0,0):  -63 y(0,1,0) - u(1,0,0) <= -0
MCLin8(1,0,0):  53 y(0,1,0) + v(1,0,0) - u(1,0,0) <= 53
MCLin9(1,0,0):  53 y(0,1,0) - u(1,0,0) >= -0
MCLin10(1,0,0):  -63 y(0,1,0) + v(1,0,0) - u(1,0,0) >= -63
MCLinV(0,1,1):  x(0,1) - v(0,1,1) - x(1,1) = 3
MCLinV(1,0,1):  - x(0,1) - v(1,0,1) + x(1,1) = 7
MCLin1(0,1,1):  u(0,1,1) >= -0
MCLin2(0,1,1):  -52 y(1,0,1) - u(0,1,1) <= -0
MCLin3(0,1,1):  64 y(1,0,1) + v(0,1,1) - u(0,1,1) <= 64
MCLin4(0,1,1):  64 y(1,0,1) - u(0,1,1) >= -0
MCLin5(0,1,1):  -52 y(1,0,1) + v(0,1,1) - u(0,1,1) >= -52
MCLin6(1,0,1):  u(1,0,1) >= -0
MCLin7(1,0,1):  -74 y(0,1,1) - u(1,0,1) <= -0
MCLin8(1,0,1):  42 y(0,1,1) + v(1,0,1) - u(1,0,1) <= 42
MCLin9(1,0,1):  42 y(0,1,1) - u(1,0,1) >= -0
MCLin10(1,0,1):  -74 y(0,1,1) + v(1,0,1) - u(1,0,1) >= -74
MCLinV(0,1,2):  x(0,2) - v(0,1,2) - x(1,2) = 1
MCLinV(1,0,2):  - x(0,2) - v(1,0,2) + x(1,2) = 6
MCLin1(0,1,2):  u(0,1,2) >= -0
MCLin2(0,1,2):  -69 y(1,0,2) - u(0,1,2) <= -0
MCLin3(0,1,2):  47 y(1,0,2) + v(0,1,2) - u(0,1,2) <= 47
MCLin4(0,1,2):  47 y(1,0,2) - u(0,1,2) >= -0
MCLin5(0,1,2):  -69 y(1,0,2) + v(0,1,2) - u(0,1,2) >= -69
MCLin6(1,0,2):  u(1,0,2) >= -0
MCLin7(1,0,2):  -54 y(0,1,2) - u(1,0,2) <= -0
MCLin8(1,0,2):  62 y(0,1,2) + v(1,0,2) - u(1,0,2) <= 62
MCLin9(1,0,2):  62 y(0,1,2) - u(1,0,2) >= -0
MCLin10(1,0,2):  -54 y(0,1,2) + v(1,0,2) - u(1,0,2) >= -54
MCLinV(0,2,0):  x(0,0) - v(0,2,0) - x(2,0) = 4
MCLinV(2,0,0):  - x(0,0) - v(2,0,0) + x(2,0) = 10
MCLin1(0,2,0):  u(0,2,0) >= -0
MCLin2(0,2,0):  -59 y(2,0,0) - u(0,2,0) <= -0
MCLin3(0,2,0):  44 y(2,0,0) + v(0,2,0) - u(0,2,0) <= 44
MCLin4(0,2,0):  44 y(2,0,0) - u(0,2,0) >= -0
MCLin5(0,2,0):  -59 y(2,0,0) + v(0,2,0) - u(0,2,0) >= -59
MCLin6(2,0,0):  u(2,0,0) >= -0
MCLin7(2,0,0):  -58 y(0,2,0) - u(2,0,0) <= -0
MCLin8(2,0,0):  45 y(0,2,0) + v(2,0,0) - u(2,0,0) <= 45
MCLin9(2,0,0):  45 y(0,2,0) - u(2,0,0) >= -0
MCLin10(2,0,0):  -58 y(0,2,0) + v(2,0,0) - u(2,0,0) >= -58
MCLinV(0,2,1):  x(0,1) - v(0,2,1) - x(2,1) = 9
MCLinV(2,0,1):  - x(0,1) - v(2,0,1) + x(2,1) = 7
MCLin1(0,2,1):  u(0,2,1) >= -0
MCLin2(0,2,1):  -45 y(2,0,1) - u(0,2,1) <= -0
MCLin3(0,2,1):  58 y(2,0,1) + v(0,2,1) - u(0,2,1) <= 58
MCLin4(0,2,1):  58 y(2,0,1) - u(0,2,1) >= -0
MCLin5(0,2,1):  -45 y(2,0,1) + v(0,2,1) - u(0,2,1) >= -45
MCLin6(2,0,1):  u(2,0,1) >= -0
MCLin7(2,0,1):  -74 y(0,2,1) - u(2,0,1) <= -0
MCLin8(2,0,1):  29 y(0,2,1) + v(2,0,1) - u(2,0,1) <= 29
MCLin9(2,0,1):  29 y(0,2,1) - u(2,0,1) >= -0
MCLin10(2,0,1):  -74 y(0,2,1) + v(2,0,1) - u(2,0,1) >= -74
MCLinV(0,2,2):  x(0,2) - v(0,2,2) - x(2,2) = 9
MCLinV(2,0,2):  - x(0,2) - v(2,0,2) + x(2,2) = 6
MCLin1(0,2,2):  u(0,2,2) >= -0
MCLin2(0,2,2):  -74 y(2,0,2) - u(0,2,2) <= -0
MCLin3(0,2,2):  29 y(2,0,2) + v(0,2,2) - u(0,2,2) <= 29
MCLin4(0,2,2):  29 y(2,0,2) - u(0,2,2) >= -0
MCLin5(0,2,2):  -74 y(2,0,2) + v(0,2,2) - u(0,2,2) >= -74
MCLin6(2,0,2):  u(2,0,2) >= -0
MCLin7(2,0,2):  -44 y(0,2,2) - u(2,0,2) <= -0
MCLin8(2,0,2):  59 y(0,2,2) + v(2,0,2) - u(2,0,2) <= 59
MCLin9(2,0,2):  59 y(0,2,2) - u(2,0,2) >= -0
MCLin10(2,0,2):  -44 y(0,2,2) + v(2,0,2) - u(2,0,2) >= -44
MCLinV(0,3,0):  x(0,0) - v(0,3,0) - x(3,0) = 4
MCLinV(3,0,0):  - x(0,0) - v(3,0,0) + x(3,0) = 10
MCLin1(0,3,0):  u(0,3,0) >= -0
MCLin2(0,3,0):  -52 y(3,0,0) - u(0,3,0) <= -0
MCLin3(0,3,0):  53 y(3,0,0) + v(0,3,0) - u(0,3,0) <= 53
MCLin4(0,3,0):  53 y(3,0,0) - u(0,3,0) >= -0
MCLin5(0,3,0):  -52 y(3,0,0) + v(0,3,0) - u(0,3,0) >= -52
MCLin6(3,0,0):  u(3,0,0) >= -0
MCLin7(3,0,0):  -67 y(0,3,0) - u(3,0,0) <= -0
MCLin8(3,0,0):  38 y(0,3,0) + v(3,0,0) - u(3,0,0) <= 38
MCLin9(3,0,0):  38 y(0,3,0) - u(3,0,0) >= -0
MCLin10(3,0,0):  -67 y(0,3,0) + v(3,0,0) - u(3,0,0) >= -67
MCLinV(0,3,1):  x(0,1) - v(0,3,1) - x(3,1) = 6
MCLinV(3,0,1):  - x(0,1) - v(3,0,1) + x(3,1) = 7
MCLin1(0,3,1):  u(0,3,1) >= -0
MCLin2(0,3,1):  -58 y(3,0,1) - u(0,3,1) <= -0
MCLin3(0,3,1):  47 y(3,0,1) + v(0,3,1) - u(0,3,1) <= 47
MCLin4(0,3,1):  47 y(3,0,1) - u(0,3,1) >= -0
MCLin5(0,3,1):  -58 y(3,0,1) + v(0,3,1) - u(0,3,1) >= -58
MCLin6(3,0,1):  u(3,0,1) >= -0
MCLin7(3,0,1):  -60 y(0,3,1) - u(3,0,1) <= -0
MCLin8(3,0,1):  45 y(0,3,1) + v(3,0,1) - u(3,0,1) <= 45
MCLin9(3,0,1):  45 y(0,3,1) - u(3,0,1) >= -0
MCLin10(3,0,1):  -60 y(0,3,1) + v(3,0,1) - u(3,0,1) >= -60
MCLinV(0,3,2):  x(0,2) - v(0,3,2) - x(3,2) = 10
MCLinV(3,0,2):  - x(0,2) - v(3,0,2) + x(3,2) = 6
MCLin1(0,3,2):  u(0,3,2) >= -0
MCLin2(0,3,2):  -68 y(3,0,2) - u(0,3,2) <= -0
MCLin3(0,3,2):  37 y(3,0,2) + v(0,3,2) - u(0,3,2) <= 37
MCLin4(0,3,2):  37 y(3,0,2) - u(0,3,2) >= -0
MCLin5(0,3,2):  -68 y(3,0,2) + v(0,3,2) - u(0,3,2) >= -68
MCLin6(3,0,2):  u(3,0,2) >= -0
MCLin7(3,0,2):  -53 y(0,3,2) - u(3,0,2) <= -0
MCLin8(3,0,2):  52 y(0,3,2) + v(3,0,2) - u(3,0,2) <= 52
MCLin9(3,0,2):  52 y(0,3,2) - u(3,0,2) >= -0
MCLin10(3,0,2):  -53 y(0,3,2) + v(3,0,2) - u(3,0,2) >= -53
MCLinV(1,2,0):  x(1,0) - v(1,2,0) - x(2,0) = 4
MCLinV(2,1,0):  - x(1,0) - v(2,1,0) + x(2,0) = 5
MCLin1(1,2,0):  u(1,2,0) >= -0
MCLin2(1,2,0):  -61 y(2,1,0) - u(1,2,0) <= -0
MCLin3(1,2,0):  56 y(2,1,0) + v(1,2,0) - u(1,2,0) <= 56
MCLin4(1,2,0):  56 y(2,1,0) - u(1,2,0) >= -0
MCLin5(1,2,0):  -61 y(2,1,0) + v(1,2,0) - u(1,2,0) >= -61
MCLin6(2,1,0):  u(2,1,0) >= -0
MCLin7(2,1,0):  -65 y(1,2,0) - u(2,1,0) <= -0
MCLin8(2,1,0):  52 y(1,2,0) + v(2,1,0) - u(2,1,0) <= 52
MCLin9(2,1,0):  52 y(1,2,0) - u(2,1,0) >= -0
MCLin10(2,1,0):  -65 y(1,2,0) + v(2,1,0) - u(2,1,0) >= -65
MCLinV(1,2,1):  x(1,1) - v(1,2,1) - x(2,1) = 9
MCLinV(2,1,1):  - x(1,1) - v(2,1,1) + x(2,1) = 3
MCLin1(1,2,1):  u(1,2,1) >= -0
MCLin2(1,2,1):  -61 y(2,1,1) - u(1,2,1) <= -0
MCLin3(1,2,1):  56 y(2,1,1) + v(1,2,1) - u(1,2,1) <= 56
MCLin4(1,2,1):  56 y(2,1,1) - u(1,2,1) >= -0
MCLin5(1,2,1):  -61 y(2,1,1) + v(1,2,1) - u(1,2,1) >= -61
MCLin6(2,1,1):  u(2,1,1) >= -0
MCLin7(2,1,1):  -68 y(1,2,1) - u(2,1,1) <= -0
MCLin8(2,1,1):  49 y(1,2,1) + v(2,1,1) - u(2,1,1) <= 49
MCLin9(2,1,1):  49 y(1,2,1) - u(2,1,1) >= -0
MCLin10(2,1,1):  -68 y(1,2,1) + v(2,1,1) - u(2,1,1) >= -68
MCLinV(1,2,2):  x(1,2) - v(1,2,2) - x(2,2) = 9
MCLinV(2,1,2):  - x(1,2) - v(2,1,2) + x(2,2) = 1
MCLin1(1,2,2):  u(1,2,2) >= -0
MCLin2(1,2,2):  -71 y(2,1,2) - u(1,2,2) <= -0
MCLin3(1,2,2):  46 y(2,1,2) + v(1,2,2) - u(1,2,2) <= 46
MCLin4(1,2,2):  46 y(2,1,2) - u(1,2,2) >= -0
MCLin5(1,2,2):  -71 y(2,1,2) + v(1,2,2) - u(1,2,2) >= -71
MCLin6(2,1,2):  u(2,1,2) >= -0
MCLin7(2,1,2):  -56 y(1,2,2) - u(2,1,2) <= -0
MCLin8(2,1,2):  61 y(1,2,2) + v(2,1,2) - u(2,1,2) <= 61
MCLin9(2,1,2):  61 y(1,2,2) - u(2,1,2) >= -0
MCLin10(2,1,2):  -56 y(1,2,2) + v(2,1,2) - u(2,1,2) >= -56
MCLinV(1,3,0):  x(1,0) - v(1,3,0) - x(3,0) = 4
MCLinV(3,1,0):  - x(1,0) - v(3,1,0) + x(3,0) = 5
MCLin1(1,3,0):  u(1,3,0) >= -0
MCLin2(1,3,0):  -54 y(3,1,0) - u(1,3,0) <= -0
MCLin3(1,3,0):  65 y(3,1,0) + v(1,3,0) - u(1,3,0) <= 65
MCLin4(1,3,0):  65 y(3,1,0) - u(1,3,0) >= -0
MCLin5(1,3,0):  -54 y(3,1,0) + v(1,3,0) - u(1,3,0) >= -54
MCLin6(3,1,0):  u(3,1,0) >= -0
MCLin7(3,1,0):  -74 y(1,3,0) - u(3,1,0) <= -0
MCLin8(3,1,0):  45 y(1,3,0) + v(3,1,0) - u(3,1,0) <= 45
MCLin9(3,1,0):  45 y(1,3,0) - u(3,1,0) >= -0
MCLin10(3,1,0):  -74 y(1,3,0) + v(3,1,0) - u(3,1,0) >= -74
MCLinV(1,3,1):  x(1,1) - v(1,3,1) - x(3,1) = 6
MCLinV(3,1,1):  - x(1,1) - v(3,1,1) + x(3,1) = 3
MCLin1(1,3,1):  u(1,3,1) >= -0
MCLin2(1,3,1):  -74 y(3,1,1) - u(1,3,1) <= -0
MCLin3(1,3,1):  45 y(3,1,1) + v(1,3,1) - u(1,3,1) <= 45
MCLin4(1,3,1):  45 y(3,1,1) - u(1,3,1) >= -0
MCLin5(1,3,1):  -74 y(3,1,1) + v(1,3,1) - u(1,3,1) >= -74
MCLin6(3,1,1):  u(3,1,1) >= -0
MCLin7(3,1,1):  -54 y(1,3,1) - u(3,1,1) <= -0
MCLin8(3,1,1):  65 y(1,3,1) + v(3,1,1) - u(3,1,1) <= 65
MCLin9(3,1,1):  65 y(1,3,1) - u(3,1,1) >= -0
MCLin10(3,1,1):  -54 y(1,3,1) + v(3,1,1) - u(3,1,1) >= -54
MCLinV(1,3,2):  x(1,2) - v(1,3,2) - x(3,2) = 10
MCLinV(3,1,2):  - x(1,2) - v(3,1,2) + x(3,2) = 1
MCLin1(1,3,2):  u(1,3,2) >= -0
MCLin2(1,3,2):  -65 y(3,1,2) - u(1,3,2) <= -0
MCLin3(1,3,2):  54 y(3,1,2) + v(1,3,2) - u(1,3,2) <= 54
MCLin4(1,3,2):  54 y(3,1,2) - u(1,3,2) >= -0
MCLin5(1,3,2):  -65 y(3,1,2) + v(1,3,2) - u(1,3,2) >= -65
MCLin6(3,1,2):  u(3,1,2) >= -0
MCLin7(3,1,2):  -65 y(1,3,2) - u(3,1,2) <= -0
MCLin8(3,1,2):  54 y(1,3,2) + v(3,1,2) - u(3,1,2) <= 54
MCLin9(3,1,2):  54 y(1,3,2) - u(3,1,2) >= -0
MCLin10(3,1,2):  -65 y(1,3,2) + v(3,1,2) - u(3,1,2) >= -65
MCLinV(2,3,0):  x(2,0) - v(2,3,0) - x(3,0) = 4
MCLinV(3,2,0):  - x(2,0) - v(3,2,0) + x(3,0) = 4
MCLin1(2,3,0):  u(2,3,0) >= -0
MCLin2(2,3,0):  -49 y(3,2,0) - u(2,3,0) <= -0
MCLin3(2,3,0):  57 y(3,2,0) + v(2,3,0) - u(2,3,0) <= 57
MCLin4(2,3,0):  57 y(3,2,0) - u(2,3,0) >= -0
MCLin5(2,3,0):  -49 y(3,2,0) + v(2,3,0) - u(2,3,0) >= -49
MCLin6(3,2,0):  u(3,2,0) >= -0
MCLin7(3,2,0):  -65 y(2,3,0) - u(3,2,0) <= -0
MCLin8(3,2,0):  41 y(2,3,0) + v(3,2,0) - u(3,2,0) <= 41
MCLin9(3,2,0):  41 y(2,3,0) - u(3,2,0) >= -0
MCLin10(3,2,0):  -65 y(2,3,0) + v(3,2,0) - u(3,2,0) >= -65
MCLinV(2,3,1):  x(2,1) - v(2,3,1) - x(3,1) = 6
MCLinV(3,2,1):  - x(2,1) - v(3,2,1) + x(3,1) = 9
MCLin1(2,3,1):  u(2,3,1) >= -0
MCLin2(2,3,1):  -74 y(3,2,1) - u(2,3,1) <= -0
MCLin3(2,3,1):  32 y(3,2,1) + v(2,3,1) - u(2,3,1) <= 32
MCLin4(2,3,1):  32 y(3,2,1) - u(2,3,1) >= -0
MCLin5(2,3,1):  -74 y(3,2,1) + v(2,3,1) - u(2,3,1) >= -74
MCLin6(3,2,1):  u(3,2,1) >= -0
MCLin7(3,2,1):  -47 y(2,3,1) - u(3,2,1) <= -0
MCLin8(3,2,1):  59 y(2,3,1) + v(3,2,1) - u(3,2,1) <= 59
MCLin9(3,2,1):  59 y(2,3,1) - u(3,2,1) >= -0
MCLin10(3,2,1):  -47 y(2,3,1) + v(3,2,1) - u(3,2,1) >= -47
MCLinV(2,3,2):  x(2,2) - v(2,3,2) - x(3,2) = 10
MCLinV(3,2,2):  - x(2,2) - v(3,2,2) + x(3,2) = 9
MCLin1(2,3,2):  u(2,3,2) >= -0
MCLin2(2,3,2):  -55 y(3,2,2) - u(2,3,2) <= -0
MCLin3(2,3,2):  51 y(3,2,2) + v(2,3,2) - u(2,3,2) <= 51
MCLin4(2,3,2):  51 y(3,2,2) - u(2,3,2) >= -0
MCLin5(2,3,2):  -55 y(3,2,2) + v(2,3,2) - u(2,3,2) >= -55
MCLin6(3,2,2):  u(3,2,2) >= -0
MCLin7(3,2,2):  -70 y(2,3,2) - u(3,2,2) <= -0
MCLin8(3,2,2):  36 y(2,3,2) + v(3,2,2) - u(3,2,2) <= 36
MCLin9(3,2,2):  36 y(2,3,2) - u(3,2,2) >= -0
MCLin10(3,2,2):  -70 y(2,3,2) + v(3,2,2) - u(3,2,2) >= -70
makespan(0):  C - x(0,1) >= 7
makespan(1):  C - x(1,0) >= 5
makespan(2):  C - x(2,2) >= 9
makespan(3):  C - x(3,1) >= 6
Bounds
 0 <= C <= 74
 6 <= x(0,0) <= 57
 0 <= y(0,1,0) <= 1
 0 <= y(1,0,0) <= 1
 -68 <= v(0,1,0) <= 48
 -63 <= v(1,0,0) <= 53
 -740 <= u(0,1,0)
 -740 <= u(1,0,0)
 0 <= y(0,2,0) <= 1
 0 <= y(2,0,0) <= 1
 -59 <= v(0,2,0) <= 44
 -58 <= v(2,0,0) <= 45
 -740 <= u(0,2,0)
 -740 <= u(2,0,0)
 0 <= y(0,3,0) <= 1
 0 <= y(3,0,0) <= 1
 -52 <= v(0,3,0) <= 53
 -67 <= v(3,0,0) <= 38
 -740 <= u(0,3,0)
 -740 <= u(3,0,0)
 4 <= x(1,0) <= 69
 0 <= y(1,2,0) <= 1
 0 <= y(2,1,0) <= 1
 -61 <= v(1,2,0) <= 56
 -65 <= v(2,1,0) <= 52
 -740 <= u(1,2,0)
 -740 <= u(2,1,0)
 0 <= y(1,3,0) <= 1
 0 <= y(3,1,0) <= 1
 -54 <= v(1,3,0) <= 65
 -74 <= v(3,1,0) <= 45
 -740 <= u(1,3,0)
 -740 <= u(3,1,0)
 9 <= x(2,0) <= 61
 0 <= y(2,3,0) <= 1
 0 <= y(3,2,0) <= 1
 -49 <= v(2,3,0) <= 57
 -65 <= v(3,2,0) <= 41
 -740 <= u(2,3,0)
 -740 <= u(3,2,0)
 0 <= x(3,0) <= 54
 16 <= x(0,1) <= 67
 0 <= y(0,1,1) <= 1
 0 <= y(1,0,1) <= 1
 -52 <= v(0,1,1) <= 64
 -74 <= v(1,0,1) <= 42
 -740 <= u(0,1,1)
 -740 <= u(1,0,1)
 0 <= y(0,2,1) <= 1
 0 <= y(2,0,1) <= 1
 -45 <= v(0,2,1) <= 58
 -74 <= v(2,0,1) <= 29
 -740 <= u(0,2,1)
 -740 <= u(2,0,1)
 0 <= y(0,3,1) <= 1
 0 <= y(3,0,1) <= 1
 -58 <= v(0,3,1) <= 47
 -60 <= v(3,0,1) <= 45
 -740 <= u(0,3,1)
 -740 <= u(3,0,1)
 0 <= x(1,1) <= 65
 0 <= y(1,2,1) <= 1
 0 <= y(2,1,1) <= 1
 -61 <= v(1,2,1) <= 56
 -68 <= v(2,1,1) <= 49
 -740 <= u(1,2,1)
 -740 <= u(2,1,1)
 0 <= y(1,3,1) <= 1
 0 <= y(3,1,1) <= 1
 -74 <= v(1,3,1) <= 45
 -54 <= v(3,1,1) <= 65
 -740 <= u(1,3,1)
 -740 <= u(3,1,1)
 0 <= x(2,1) <= 52
 0 <= y(2,3,1) <= 1
 0 <= y(3,2,1) <= 1
 -74 <= v(2,3,1) <= 32
 -47 <= v(3,2,1) <= 59
 -740 <= u(2,3,1)
 -740 <= u(3,2,1)
 14 <= x(3,1) <= 68
 0 <= x(0,2) <= 51
 0 <= y(0,1,2) <= 1
 0 <= y(1,0,2) <= 1
 -69 <= v(0,1,2) <= 47
 -54 <= v(1,0,2) <= 62
 -740 <= u(0,1,2)
 -740 <= u(1,0,2)
 0 <= y(0,2,2) <= 1
 0 <= y(2,0,2) <= 1
 -74 <= v(0,2,2) <= 29
 -44 <= v(2,0,2) <= 59
 -740 <= u(0,2,2)
 -740 <= u(2,0,2)
 0 <= y(0,3,2) <= 1
 0 <= y(3,0,2) <= 1
 -68 <= v(0,3,2) <= 37
 -53 <= v(3,0,2) <= 52
 -740 <= u(0,3,2)
 -740 <= u(3,0,2)
 3 <= x(1,2) <= 68
 0 <= y(1,2,2) <= 1
 0 <= y(2,1,2) <= 1
 -71 <= v(1,2,2) <= 46
 -56 <= v(2,1,2) <= 61
 -740 <= u(1,2,2)
 -740 <= u(2,1,2)
 0 <= y(1,3,2) <= 1
 0 <= y(3,1,2) <= 1
 -65 <= v(1,3,2) <= 54
 -65 <= v(3,1,2) <= 54
 -740 <= u(1,3,2)
 -740 <= u(3,1,2)
 13 <= x(2,2) <= 65
 0 <= y(2,3,2) <= 1
 0 <= y(3,2,2) <= 1
 -55 <= v(2,3,2) <= 51
 -70 <= v(3,2,2) <= 36
 -740 <= u(2,3,2)
 -740 <= u(3,2,2)
 4 <= x(3,2) <= 58
Integers
C x(0,0) y(0,1,0) y(1,0,0) v(0,1,0) v(1,0,0) u(0,1,0) u(1,0,0) y(0,2,0) y(2,0,0) 
v(0,2,0) v(2,0,0) u(0,2,0) u(2,0,0) y(0,3,0) y(3,0,0) v(0,3,0) v(3,0,0) u(0,3,0) u(3,0,0) 
x(1,0) y(1,2,0) y(2,1,0) v(1,2,0) v(2,1,0) u(1,2,0) u(2,1,0) y(1,3,0) y(3,1,0) v(1,3,0) 
v(3,1,0) u(1,3,0) u(3,1,0) x(2,0) y(2,3,0) y(3,2,0) v(2,3,0) v(3,2,0) u(2,3,0) u(3,2,0) 
x(3,0) x(0,1) y(0,1,1) y(1,0,1) v(0,1,1) v(1,0,1) u(0,1,1) u(1,0,1) y(0,2,1) y(2,0,1) 
v(0,2,1) v(2,0,1) u(0,2,1) u(2,0,1) y(0,3,1) y(3,0,1) v(0,3,1) v(3,0,1) u(0,3,1) u(3,0,1) 
x(1,1) y(1,2,1) y(2,1,1) v(1,2,1) v(2,1,1) u(1,2,1) u(2,1,1) y(1,3,1) y(3,1,1) v(1,3,1) 
v(3,1,1) u(1,3,1) u(3,1,1) x(2,1) y(2,3,1) y(3,2,1) v(2,3,1) v(3,2,1) u(2,3,1) u(3,2,1) 
x(3,1) x(0,2) y(0,1,2) y(1,0,2) v(0,1,2) v(1,0,2) u(0,1,2) u(1,0,2) y(0,2,2) y(2,0,2) 
v(0,2,2) v(2,0,2) u(0,2,2) u(2,0,2) y(0,3,2) y(3,0,2) v(0,3,2) v(3,0,2) u(0,3,2) u(3,0,2) 
x(1,2) y(1,2,2) y(2,1,2) v(1,2,2) v(2,1,2) u(1,2,2) u(2,1,2) y(1,3,2) y(3,1,2) v(1,3,2) 
v(3,1,2) u(1,3,2) u(3,1,2) x(2,2) y(2,3,2) y(3,2,2) v(2,3,2) v(3,2,2) u(2,3,2) u(3,2,2) 
x(3,2) 
End
